(set-info :smt-lib-version 2.6)
(set-logic QF_LRA)
(set-info :source |
Fully parameterized specification and verification of a synchronizer   
circuit modeling metastability at various levels of refinement.     
A paper describing this specification, to be published in Designing     
Correct Circuits (DCC), 2006, is available from the authors.            

Geoffrey Brown, Indiana University <geobrown@cs.indiana.edu>
Lee Pike, Galois Connections, Inc. <leepike@galois.com>

Translated into CVC format by Leonardo de Moura.

This benchmark was automatically translated into SMT-LIB format from
CVC format using CVC Lite

|)
(set-info :category "industrial")
(set-info :status sat)
(declare-fun x_0 () Bool)
(declare-fun x_1 () Bool)
(declare-fun x_2 () Real)
(declare-fun x_3 () Real)
(declare-fun x_4 () Bool)
(declare-fun x_5 () Bool)
(declare-fun x_6 () Real)
(declare-fun x_7 () Real)
(declare-fun x_8 () Bool)
(declare-fun x_9 () Bool)
(declare-fun x_10 () Real)
(declare-fun x_11 () Real)
(declare-fun x_12 () Bool)
(declare-fun x_13 () Bool)
(declare-fun x_14 () Real)
(declare-fun x_15 () Real)
(declare-fun x_16 () Bool)
(declare-fun x_17 () Bool)
(declare-fun x_18 () Real)
(declare-fun x_19 () Real)
(declare-fun x_20 () Bool)
(declare-fun x_21 () Bool)
(declare-fun x_22 () Real)
(declare-fun x_23 () Real)
(declare-fun x_24 () Bool)
(declare-fun x_25 () Bool)
(declare-fun x_26 () Real)
(declare-fun x_27 () Real)
(declare-fun x_28 () Bool)
(declare-fun x_29 () Bool)
(declare-fun x_30 () Real)
(declare-fun x_31 () Real)
(declare-fun x_32 () Real)
(declare-fun x_33 () Real)
(declare-fun x_34 () Real)
(declare-fun x_35 () Real)
(declare-fun x_36 () Real)
(declare-fun x_37 () Real)
(declare-fun x_38 () Real)
(declare-fun x_39 () Real)
(declare-fun x_40 () Real)
(declare-fun x_41 () Real)
(declare-fun x_42 () Bool)
(declare-fun x_43 () Bool)
(declare-fun x_44 () Real)
(declare-fun x_45 () Real)
(declare-fun x_46 () Real)
(declare-fun x_47 () Real)
(declare-fun x_48 () Bool)
(declare-fun x_49 () Bool)
(declare-fun x_50 () Bool)
(declare-fun x_51 () Bool)
(declare-fun x_52 () Bool)
(declare-fun x_53 () Real)
(declare-fun x_54 () Bool)
(declare-fun x_55 () Real)
(declare-fun x_56 () Real)
(declare-fun x_57 () Real)
(declare-fun x_58 () Real)
(declare-fun x_59 () Real)
(declare-fun x_60 () Real)
(declare-fun x_61 () Real)
(declare-fun x_62 () Real)
(declare-fun x_63 () Real)
(declare-fun x_64 () Bool)
(declare-fun x_65 () Real)
(declare-fun x_66 () Bool)
(declare-fun x_67 () Bool)
(declare-fun x_68 () Real)
(declare-fun x_69 () Bool)
(declare-fun x_70 () Real)
(declare-fun x_71 () Real)
(declare-fun x_72 () Real)
(declare-fun x_73 () Real)
(declare-fun x_74 () Real)
(declare-fun x_75 () Real)
(declare-fun x_76 () Real)
(declare-fun x_77 () Real)
(declare-fun x_78 () Bool)
(declare-fun x_79 () Real)
(declare-fun x_80 () Bool)
(declare-fun x_81 () Bool)
(declare-fun x_82 () Real)
(declare-fun x_83 () Bool)
(declare-fun x_84 () Real)
(declare-fun x_85 () Real)
(declare-fun x_86 () Real)
(declare-fun x_87 () Real)
(declare-fun x_88 () Real)
(declare-fun x_89 () Real)
(declare-fun x_90 () Real)
(declare-fun x_91 () Real)
(declare-fun x_92 () Bool)
(declare-fun x_93 () Real)
(declare-fun x_94 () Bool)
(declare-fun x_95 () Bool)
(declare-fun x_96 () Real)
(declare-fun x_97 () Bool)
(declare-fun x_98 () Real)
(declare-fun x_99 () Real)
(declare-fun x_100 () Real)
(declare-fun x_101 () Real)
(declare-fun x_102 () Real)
(declare-fun x_103 () Real)
(declare-fun x_104 () Real)
(declare-fun x_105 () Real)
(declare-fun x_106 () Bool)
(declare-fun x_107 () Real)
(declare-fun x_108 () Bool)
(declare-fun x_109 () Bool)
(declare-fun x_110 () Real)
(declare-fun x_111 () Bool)
(declare-fun x_112 () Real)
(declare-fun x_113 () Real)
(declare-fun x_114 () Real)
(declare-fun x_115 () Real)
(declare-fun x_116 () Real)
(declare-fun x_117 () Real)
(declare-fun x_118 () Real)
(declare-fun x_119 () Real)
(declare-fun x_120 () Bool)
(declare-fun x_121 () Real)
(declare-fun x_122 () Bool)
(declare-fun x_123 () Bool)
(declare-fun x_124 () Real)
(declare-fun x_125 () Bool)
(declare-fun x_126 () Real)
(declare-fun x_127 () Real)
(declare-fun x_128 () Real)
(declare-fun x_129 () Real)
(declare-fun x_130 () Real)
(declare-fun x_131 () Real)
(declare-fun x_132 () Real)
(declare-fun x_133 () Real)
(declare-fun x_134 () Bool)
(declare-fun x_135 () Real)
(declare-fun x_136 () Bool)
(declare-fun x_137 () Bool)
(declare-fun x_138 () Real)
(declare-fun x_139 () Bool)
(declare-fun x_140 () Real)
(declare-fun x_141 () Real)
(declare-fun x_142 () Real)
(declare-fun x_143 () Real)
(declare-fun x_144 () Real)
(declare-fun x_145 () Real)
(declare-fun x_146 () Real)
(declare-fun x_147 () Real)
(declare-fun x_148 () Bool)
(declare-fun x_149 () Real)
(declare-fun x_150 () Real)
(declare-fun x_151 () Bool)
(declare-fun x_152 () Bool)
(declare-fun x_153 () Bool)
(declare-fun x_154 () Bool)
(declare-fun x_155 () Real)
(declare-fun x_156 () Bool)
(declare-fun x_157 () Real)
(declare-fun x_158 () Real)
(declare-fun x_159 () Real)
(declare-fun x_160 () Real)
(assert (let ((?v_97 (= x_32 x_33)) (?v_98 (= x_34 x_35)) (?v_99 (= x_36 x_37)) (?v_95 (= x_38 x_39))) (let ((?v_100 (not ?v_95)) (?v_103 (= x_40 x_41)) (?v_92 (= x_42 x_43)) (?v_93 (= x_7 x_3)) (?v_96 (ite (<= x_34 x_38) x_34 x_38)) (?v_91 (ite (<= x_38 x_34) x_38 x_34)) (?v_84 (= x_59 x_32)) (?v_85 (= x_35 x_60)) (?v_86 (= x_61 x_36)) (?v_82 (= x_39 x_62))) (let ((?v_87 (not ?v_82)) (?v_90 (= x_63 x_40)) (?v_79 (= x_64 x_42)) (?v_80 (= x_11 x_7)) (?v_83 (ite (<= x_35 x_39) x_35 x_39)) (?v_78 (ite (<= x_39 x_35) x_39 x_35)) (?v_71 (= x_73 x_59)) (?v_72 (= x_60 x_74)) (?v_73 (= x_75 x_61)) (?v_69 (= x_62 x_76))) (let ((?v_74 (not ?v_69)) (?v_77 (= x_77 x_63)) (?v_66 (= x_78 x_64)) (?v_67 (= x_15 x_11)) (?v_70 (ite (<= x_60 x_62) x_60 x_62)) (?v_65 (ite (<= x_62 x_60) x_62 x_60)) (?v_58 (= x_87 x_73)) (?v_59 (= x_74 x_88)) (?v_60 (= x_89 x_75)) (?v_56 (= x_76 x_90))) (let ((?v_61 (not ?v_56)) (?v_64 (= x_91 x_77)) (?v_53 (= x_92 x_78)) (?v_54 (= x_19 x_15)) (?v_57 (ite (<= x_74 x_76) x_74 x_76)) (?v_52 (ite (<= x_76 x_74) x_76 x_74)) (?v_45 (= x_101 x_87)) (?v_46 (= x_88 x_102)) (?v_47 (= x_103 x_89)) (?v_43 (= x_90 x_104))) (let ((?v_48 (not ?v_43)) (?v_51 (= x_105 x_91)) (?v_40 (= x_106 x_92)) (?v_41 (= x_23 x_19)) (?v_44 (ite (<= x_88 x_90) x_88 x_90)) (?v_39 (ite (<= x_90 x_88) x_90 x_88)) (?v_32 (= x_115 x_101)) (?v_33 (= x_102 x_116)) (?v_34 (= x_117 x_103)) (?v_30 (= x_104 x_118))) (let ((?v_35 (not ?v_30)) (?v_38 (= x_119 x_105)) (?v_27 (= x_120 x_106)) (?v_28 (= x_27 x_23)) (?v_31 (ite (<= x_102 x_104) x_102 x_104)) (?v_26 (ite (<= x_104 x_102) x_104 x_102)) (?v_19 (= x_129 x_115)) (?v_20 (= x_116 x_130)) (?v_21 (= x_131 x_117)) (?v_17 (= x_118 x_132))) (let ((?v_22 (not ?v_17)) (?v_25 (= x_133 x_119)) (?v_14 (= x_134 x_120)) (?v_15 (= x_31 x_27)) (?v_18 (ite (<= x_116 x_118) x_116 x_118)) (?v_13 (ite (<= x_118 x_116) x_118 x_116)) (?v_6 (= x_143 x_129)) (?v_7 (= x_130 x_144)) (?v_8 (= x_145 x_131)) (?v_4 (= x_132 x_146))) (let ((?v_9 (not ?v_4)) (?v_12 (= x_147 x_133)) (?v_1 (= x_148 x_134)) (?v_2 (= x_149 x_31)) (?v_5 (ite (<= x_130 x_132) x_130 x_132)) (?v_0 (ite (<= x_132 x_130) x_132 x_130)) (?v_3 (= x_152 x_29)) (?v_11 (= x_31 x_149)) (?v_16 (= x_29 x_25)) (?v_24 (= x_27 x_31)) (?v_29 (= x_25 x_21)) (?v_37 (= x_23 x_27)) (?v_42 (= x_21 x_17)) (?v_50 (= x_19 x_23)) (?v_55 (= x_17 x_13)) (?v_63 (= x_15 x_19)) (?v_68 (= x_13 x_9)) (?v_76 (= x_11 x_15)) (?v_81 (= x_9 x_5)) (?v_89 (= x_7 x_11)) (?v_94 (= x_5 x_1)) (?v_102 (= x_3 x_7))) (let ((?v_10 (+ ?v_5 x_46)) (?v_23 (+ ?v_18 x_46)) (?v_36 (+ ?v_31 x_46)) (?v_49 (+ ?v_44 x_46)) (?v_62 (+ ?v_57 x_46)) (?v_75 (+ ?v_70 x_46)) (?v_88 (+ ?v_83 x_46)) (?v_101 (+ ?v_96 x_46))) (and (and (and (and (and (and (and (and (and (and (and (and (and (and (and (and (and (and (and (and (and (and (and (and (and (and (and (and (and (and (and (and (and (and (and (and (and (and (and (and (and (and (and (and (and (and (and (and (and (> x_44 0) (> x_45 0)) (>= x_46 0)) (< x_46 x_44)) (< x_46 x_45)) (>= x_57 0)) (< x_57 x_44)) (< x_57 x_45)) (or (= x_28 x_29) (= x_30 x_31))) (or (= x_24 x_25) (= x_26 x_27))) (or (= x_20 x_21) (= x_22 x_23))) (or (= x_16 x_17) (= x_18 x_19))) (or (= x_12 x_13) (= x_14 x_15))) (or (= x_8 x_9) (= x_10 x_11))) (or (= x_4 x_5) (= x_6 x_7))) (or (= x_0 x_1) (= x_2 x_3))) (or (and (and (and (and (and (and (and (and (and (= x_150 0) (= x_151 x_139)) (= ?v_0 x_132)) (<= (+ ?v_0 x_44) x_146)) (or ?v_3 (= x_152 x_28))) (= x_153 x_136)) (= x_154 x_137)) (= x_144 x_130)) ?v_1) ?v_2) (and (and (and (and (and (and (and (and (and (= x_150 1) (= x_154 x_136)) (= ?v_0 x_130)) (<= (+ ?v_0 x_45) x_144)) (or (and (and (= x_155 0) ?v_1) ?v_2) (and (and (= x_155 1) (= x_134 x_137)) (= x_148 (not x_134))))) (= x_156 x_139)) (= x_151 x_28)) (= x_157 x_30)) (= x_146 x_132)) ?v_3))) (or (or (and (and (and (= x_158 0) ?v_9) (or (not (<= x_129 ?v_5)) (= x_156 x_134))) ?v_6) (and (and (and (= x_158 1) ?v_4) (xor x_134 x_148)) (= x_143 ?v_10))) (and (and (and (= x_158 2) ?v_4) (= x_134 x_148)) ?v_6))) (or (or (and (and (and (= x_159 0) (not ?v_7)) (or (not (<= x_131 ?v_0)) (= x_153 x_29))) ?v_8) (and (and (and (= x_159 1) ?v_7) (xor x_29 x_152)) (= x_145 (+ ?v_0 x_57)))) (and (and (and (= x_159 2) ?v_7) (= x_29 x_152)) ?v_8))) (or (or (and (and (and (= x_160 0) ?v_9) (or (not (<= x_133 ?v_5)) (= x_157 x_31))) ?v_12) (and (and (and (= x_160 1) ?v_4) (not ?v_11)) (= x_147 ?v_10))) (and (and (and (= x_160 2) ?v_4) ?v_11) ?v_12))) (or (and (and (and (and (and (and (and (and (and (= x_135 0) (= x_28 x_125)) (= ?v_13 x_118)) (<= (+ ?v_13 x_44) x_132)) (or ?v_16 (= x_29 x_24))) (= x_136 x_122)) (= x_137 x_123)) (= x_130 x_116)) ?v_14) ?v_15) (and (and (and (and (and (and (and (and (and (= x_135 1) (= x_137 x_122)) (= ?v_13 x_116)) (<= (+ ?v_13 x_45) x_130)) (or (and (and (= x_138 0) ?v_14) ?v_15) (and (and (= x_138 1) (= x_120 x_123)) (= x_134 (not x_120))))) (= x_139 x_125)) (= x_28 x_24)) (= x_30 x_26)) (= x_132 x_118)) ?v_16))) (or (or (and (and (and (= x_140 0) ?v_22) (or (not (<= x_115 ?v_18)) (= x_139 x_120))) ?v_19) (and (and (and (= x_140 1) ?v_17) (xor x_120 x_134)) (= x_129 ?v_23))) (and (and (and (= x_140 2) ?v_17) (= x_120 x_134)) ?v_19))) (or (or (and (and (and (= x_141 0) (not ?v_20)) (or (not (<= x_117 ?v_13)) (= x_136 x_25))) ?v_21) (and (and (and (= x_141 1) ?v_20) (xor x_25 x_29)) (= x_131 (+ ?v_13 x_57)))) (and (and (and (= x_141 2) ?v_20) (= x_25 x_29)) ?v_21))) (or (or (and (and (and (= x_142 0) ?v_22) (or (not (<= x_119 ?v_18)) (= x_30 x_27))) ?v_25) (and (and (and (= x_142 1) ?v_17) (not ?v_24)) (= x_133 ?v_23))) (and (and (and (= x_142 2) ?v_17) ?v_24) ?v_25))) (or (and (and (and (and (and (and (and (and (and (= x_121 0) (= x_24 x_111)) (= ?v_26 x_104)) (<= (+ ?v_26 x_44) x_118)) (or ?v_29 (= x_25 x_20))) (= x_122 x_108)) (= x_123 x_109)) (= x_116 x_102)) ?v_27) ?v_28) (and (and (and (and (and (and (and (and (and (= x_121 1) (= x_123 x_108)) (= ?v_26 x_102)) (<= (+ ?v_26 x_45) x_116)) (or (and (and (= x_124 0) ?v_27) ?v_28) (and (and (= x_124 1) (= x_106 x_109)) (= x_120 (not x_106))))) (= x_125 x_111)) (= x_24 x_20)) (= x_26 x_22)) (= x_118 x_104)) ?v_29))) (or (or (and (and (and (= x_126 0) ?v_35) (or (not (<= x_101 ?v_31)) (= x_125 x_106))) ?v_32) (and (and (and (= x_126 1) ?v_30) (xor x_106 x_120)) (= x_115 ?v_36))) (and (and (and (= x_126 2) ?v_30) (= x_106 x_120)) ?v_32))) (or (or (and (and (and (= x_127 0) (not ?v_33)) (or (not (<= x_103 ?v_26)) (= x_122 x_21))) ?v_34) (and (and (and (= x_127 1) ?v_33) (xor x_21 x_25)) (= x_117 (+ ?v_26 x_57)))) (and (and (and (= x_127 2) ?v_33) (= x_21 x_25)) ?v_34))) (or (or (and (and (and (= x_128 0) ?v_35) (or (not (<= x_105 ?v_31)) (= x_26 x_23))) ?v_38) (and (and (and (= x_128 1) ?v_30) (not ?v_37)) (= x_119 ?v_36))) (and (and (and (= x_128 2) ?v_30) ?v_37) ?v_38))) (or (and (and (and (and (and (and (and (and (and (= x_107 0) (= x_20 x_97)) (= ?v_39 x_90)) (<= (+ ?v_39 x_44) x_104)) (or ?v_42 (= x_21 x_16))) (= x_108 x_94)) (= x_109 x_95)) (= x_102 x_88)) ?v_40) ?v_41) (and (and (and (and (and (and (and (and (and (= x_107 1) (= x_109 x_94)) (= ?v_39 x_88)) (<= (+ ?v_39 x_45) x_102)) (or (and (and (= x_110 0) ?v_40) ?v_41) (and (and (= x_110 1) (= x_92 x_95)) (= x_106 (not x_92))))) (= x_111 x_97)) (= x_20 x_16)) (= x_22 x_18)) (= x_104 x_90)) ?v_42))) (or (or (and (and (and (= x_112 0) ?v_48) (or (not (<= x_87 ?v_44)) (= x_111 x_92))) ?v_45) (and (and (and (= x_112 1) ?v_43) (xor x_92 x_106)) (= x_101 ?v_49))) (and (and (and (= x_112 2) ?v_43) (= x_92 x_106)) ?v_45))) (or (or (and (and (and (= x_113 0) (not ?v_46)) (or (not (<= x_89 ?v_39)) (= x_108 x_17))) ?v_47) (and (and (and (= x_113 1) ?v_46) (xor x_17 x_21)) (= x_103 (+ ?v_39 x_57)))) (and (and (and (= x_113 2) ?v_46) (= x_17 x_21)) ?v_47))) (or (or (and (and (and (= x_114 0) ?v_48) (or (not (<= x_91 ?v_44)) (= x_22 x_19))) ?v_51) (and (and (and (= x_114 1) ?v_43) (not ?v_50)) (= x_105 ?v_49))) (and (and (and (= x_114 2) ?v_43) ?v_50) ?v_51))) (or (and (and (and (and (and (and (and (and (and (= x_93 0) (= x_16 x_83)) (= ?v_52 x_76)) (<= (+ ?v_52 x_44) x_90)) (or ?v_55 (= x_17 x_12))) (= x_94 x_80)) (= x_95 x_81)) (= x_88 x_74)) ?v_53) ?v_54) (and (and (and (and (and (and (and (and (and (= x_93 1) (= x_95 x_80)) (= ?v_52 x_74)) (<= (+ ?v_52 x_45) x_88)) (or (and (and (= x_96 0) ?v_53) ?v_54) (and (and (= x_96 1) (= x_78 x_81)) (= x_92 (not x_78))))) (= x_97 x_83)) (= x_16 x_12)) (= x_18 x_14)) (= x_90 x_76)) ?v_55))) (or (or (and (and (and (= x_98 0) ?v_61) (or (not (<= x_73 ?v_57)) (= x_97 x_78))) ?v_58) (and (and (and (= x_98 1) ?v_56) (xor x_78 x_92)) (= x_87 ?v_62))) (and (and (and (= x_98 2) ?v_56) (= x_78 x_92)) ?v_58))) (or (or (and (and (and (= x_99 0) (not ?v_59)) (or (not (<= x_75 ?v_52)) (= x_94 x_13))) ?v_60) (and (and (and (= x_99 1) ?v_59) (xor x_13 x_17)) (= x_89 (+ ?v_52 x_57)))) (and (and (and (= x_99 2) ?v_59) (= x_13 x_17)) ?v_60))) (or (or (and (and (and (= x_100 0) ?v_61) (or (not (<= x_77 ?v_57)) (= x_18 x_15))) ?v_64) (and (and (and (= x_100 1) ?v_56) (not ?v_63)) (= x_91 ?v_62))) (and (and (and (= x_100 2) ?v_56) ?v_63) ?v_64))) (or (and (and (and (and (and (and (and (and (and (= x_79 0) (= x_12 x_69)) (= ?v_65 x_62)) (<= (+ ?v_65 x_44) x_76)) (or ?v_68 (= x_13 x_8))) (= x_80 x_66)) (= x_81 x_67)) (= x_74 x_60)) ?v_66) ?v_67) (and (and (and (and (and (and (and (and (and (= x_79 1) (= x_81 x_66)) (= ?v_65 x_60)) (<= (+ ?v_65 x_45) x_74)) (or (and (and (= x_82 0) ?v_66) ?v_67) (and (and (= x_82 1) (= x_64 x_67)) (= x_78 (not x_64))))) (= x_83 x_69)) (= x_12 x_8)) (= x_14 x_10)) (= x_76 x_62)) ?v_68))) (or (or (and (and (and (= x_84 0) ?v_74) (or (not (<= x_59 ?v_70)) (= x_83 x_64))) ?v_71) (and (and (and (= x_84 1) ?v_69) (xor x_64 x_78)) (= x_73 ?v_75))) (and (and (and (= x_84 2) ?v_69) (= x_64 x_78)) ?v_71))) (or (or (and (and (and (= x_85 0) (not ?v_72)) (or (not (<= x_61 ?v_65)) (= x_80 x_9))) ?v_73) (and (and (and (= x_85 1) ?v_72) (xor x_9 x_13)) (= x_75 (+ ?v_65 x_57)))) (and (and (and (= x_85 2) ?v_72) (= x_9 x_13)) ?v_73))) (or (or (and (and (and (= x_86 0) ?v_74) (or (not (<= x_63 ?v_70)) (= x_14 x_11))) ?v_77) (and (and (and (= x_86 1) ?v_69) (not ?v_76)) (= x_77 ?v_75))) (and (and (and (= x_86 2) ?v_69) ?v_76) ?v_77))) (or (and (and (and (and (and (and (and (and (and (= x_65 0) (= x_8 x_54)) (= ?v_78 x_39)) (<= (+ ?v_78 x_44) x_62)) (or ?v_81 (= x_9 x_4))) (= x_66 x_49)) (= x_67 x_51)) (= x_60 x_35)) ?v_79) ?v_80) (and (and (and (and (and (and (and (and (and (= x_65 1) (= x_67 x_49)) (= ?v_78 x_35)) (<= (+ ?v_78 x_45) x_60)) (or (and (and (= x_68 0) ?v_79) ?v_80) (and (and (= x_68 1) (= x_42 x_51)) (= x_64 (not x_42))))) (= x_69 x_54)) (= x_8 x_4)) (= x_10 x_6)) (= x_62 x_39)) ?v_81))) (or (or (and (and (and (= x_70 0) ?v_87) (or (not (<= x_32 ?v_83)) (= x_69 x_42))) ?v_84) (and (and (and (= x_70 1) ?v_82) (xor x_42 x_64)) (= x_59 ?v_88))) (and (and (and (= x_70 2) ?v_82) (= x_42 x_64)) ?v_84))) (or (or (and (and (and (= x_71 0) (not ?v_85)) (or (not (<= x_36 ?v_78)) (= x_66 x_5))) ?v_86) (and (and (and (= x_71 1) ?v_85) (xor x_5 x_9)) (= x_61 (+ ?v_78 x_57)))) (and (and (and (= x_71 2) ?v_85) (= x_5 x_9)) ?v_86))) (or (or (and (and (and (= x_72 0) ?v_87) (or (not (<= x_40 ?v_83)) (= x_10 x_7))) ?v_90) (and (and (and (= x_72 1) ?v_82) (not ?v_89)) (= x_63 ?v_88))) (and (and (and (= x_72 2) ?v_82) ?v_89) ?v_90))) (or (and (and (and (and (and (and (and (and (and (= x_47 0) (= x_4 x_48)) (= ?v_91 x_38)) (<= (+ ?v_91 x_44) x_39)) (or ?v_94 (= x_5 x_0))) (= x_49 x_50)) (= x_51 x_52)) (= x_35 x_34)) ?v_92) ?v_93) (and (and (and (and (and (and (and (and (and (= x_47 1) (= x_51 x_50)) (= ?v_91 x_34)) (<= (+ ?v_91 x_45) x_35)) (or (and (and (= x_53 0) ?v_92) ?v_93) (and (and (= x_53 1) (= x_43 x_52)) (= x_42 (not x_43))))) (= x_54 x_48)) (= x_4 x_0)) (= x_6 x_2)) (= x_39 x_38)) ?v_94))) (or (or (and (and (and (= x_55 0) ?v_100) (or (not (<= x_33 ?v_96)) (= x_54 x_43))) ?v_97) (and (and (and (= x_55 1) ?v_95) (xor x_43 x_42)) (= x_32 ?v_101))) (and (and (and (= x_55 2) ?v_95) (= x_43 x_42)) ?v_97))) (or (or (and (and (and (= x_56 0) (not ?v_98)) (or (not (<= x_37 ?v_91)) (= x_49 x_1))) ?v_99) (and (and (and (= x_56 1) ?v_98) (xor x_1 x_5)) (= x_36 (+ ?v_91 x_57)))) (and (and (and (= x_56 2) ?v_98) (= x_1 x_5)) ?v_99))) (or (or (and (and (and (= x_58 0) ?v_100) (or (not (<= x_41 ?v_96)) (= x_6 x_3))) ?v_103) (and (and (and (= x_58 1) ?v_95) (not ?v_102)) (= x_40 ?v_101))) (and (and (and (= x_58 2) ?v_95) ?v_102) ?v_103))) (xor x_151 x_152)) (not (= x_157 x_149))))))))))))))
(check-sat)
(exit)
